(set-info :origin "Horn problem converted to SMT-LIB2 using Eldarica (https://github.com/uuverifiers/eldarica)")
(set-logic HORN)
(declare-fun INV_MAIN_42 (Int Int Int Int Int Int Int Int Int Int Int) Bool)
(assert (forall ((A Int) (B Int) (C Int) (D Int) (E Int) (F Int) (G Int) (H Int) (I Int) (J Int) (K Int))(=> (and (and (and (and (not (and (= J E) (not (= K F)))) (= B 0)) (= (- G A) (- 4))) (= H C)) (= (- I D) (- 4))) (INV_MAIN_42 A B C D E F G H I J K))))
(assert (forall ((A Int) (B Int) (C Int) (D Int) (E Int) (F Int) (G Int) (H Int) (I Int) (J Int) (K Int)) (not (and (and (and (and (INV_MAIN_42 A B C D E F G H I J K) (not (>= (- C B) 1))) (not (>= H 1))) (not (= K F))) (= J E)))))
(assert (forall ((A Int) (B Int) (C Int) (D Int) (E Int) (F Int) (G Int) (H Int) (I Int) (J Int) (K Int) (L Int) (M Int) (N Int) (O Int) (P Int) (Q Int) (R Int) (S Int) (T Int) (U Int) (V Int) (W Int) (X Int) (Y Int) (Z Int) (A1 Int) (B1 Int) (C1 Int) (D1 Int) (E1 Int) (F1 Int) (G1 Int))(=> (and (and (and (and (and (and (and (and (and (and (and (and (and (and (and (and (and (and (and (and (and (and (and (and (and (and (and (and (INV_MAIN_42 L M N O P Q R S T U V) (INV_MAIN_42 W X Y Z A1 B1 C1 D1 E1 F1 G1)) (not (and (= J G) (not (= V K))))) (not (and (= J I) (not (= V K))))) (not (>= (- B C) 1))) (not (<= H (- 1)))) (not (= D A))) (= (+ E (- (* (- 4) B) A)) (- 4))) (= W A)) (= (- X B) (- 1))) (= Y C)) (= Z D)) (= (+ A1 (- (* (- 4) B) D)) (- 4))) (= B1 F)) (= (- C1 G) (- 4))) (= (- D1 H) 1)) (= (- E1 I) (- 4))) (= F1 J)) (= G1 K)) (= L A)) (= (- M B) (- 1))) (= N C)) (= O D)) (= (+ P (- (* (- 4) B) D)) (- 4))) (= Q F)) (= (- R G) (- 4))) (= (- S H) 1)) (= (- T I) (- 4))) (= U I)) (INV_MAIN_42 A B C D E F G H I J K))))
(assert (forall ((A Int) (B Int) (C Int) (D Int) (E Int) (F Int) (G Int) (H Int) (I Int) (J Int) (K Int) (L Int) (M Int) (N Int) (O Int) (P Int) (Q Int) (R Int) (S Int) (T Int) (U Int) (V Int) (W Int) (X Int) (Y Int) (Z Int) (A1 Int) (B1 Int) (C1 Int) (D1 Int) (E1 Int) (F1 Int) (G1 Int) (H1 Int) (I1 Int) (J1 Int) (K1 Int) (L1 Int) (M1 Int) (N1 Int) (O1 Int) (P1 Int) (Q1 Int) (R1 Int) (S1 Int) (T1 Int) (U1 Int) (V1 Int) (W1 Int) (X1 Int) (Y1 Int) (Z1 Int) (A2 Int) (B2 Int) (C2 Int))(=> (and (and (and (and (and (and (and (and (and (and (and (and (and (and (and (and (and (and (and (and (and (and (and (and (and (and (and (and (and (and (and (and (and (and (and (and (and (and (and (and (and (and (and (and (and (and (and (and (and (and (and (INV_MAIN_42 L M N O P Q R S T U V) (INV_MAIN_42 W X Y Z A1 B1 C1 D1 E1 F1 G1)) (INV_MAIN_42 H1 I1 J1 K1 L1 M1 N1 O1 P1 Q1 R1)) (INV_MAIN_42 S1 T1 U1 V1 W1 X1 Y1 Z1 A2 B2 C2)) (not (and (= (+ E (- (* (- 4) B) A)) (- 4)) (not (= B1 F))))) (not (and (= (+ E (- (* (- 4) B) D)) (- 4)) (not (= B1 F))))) (not (and (= J G) (not (= R1 K))))) (not (and (= J I) (not (= R1 K))))) (not (>= (- B C) 1))) (not (<= H (- 1)))) (= S1 A)) (= (- T1 B) (- 1))) (= U1 C)) (= V1 D)) (= W1 E)) (= X1 F)) (= (- Y1 G) (- 4))) (= (- Z1 H) 1)) (= (- A2 I) (- 4))) (= B2 J)) (= C2 K)) (= H1 A)) (= (- I1 B) (- 1))) (= J1 C)) (= K1 D)) (= L1 E)) (= M1 F)) (= (- N1 G) (- 4))) (= (- O1 H) 1)) (= (- P1 I) (- 4))) (= Q1 I)) (= W A)) (= (- X B) (- 1))) (= Y C)) (= Z D)) (= (+ A1 (- (* (- 4) B) D)) (- 4))) (= (- C1 G) (- 4))) (= (- D1 H) 1)) (= (- E1 I) (- 4))) (= F1 J)) (= G1 K)) (= L A)) (= (- M B) (- 1))) (= N C)) (= O D)) (= (+ P (- (* (- 4) B) D)) (- 4))) (= Q B1)) (= (- R G) (- 4))) (= (- S H) 1)) (= (- T I) (- 4))) (= U I)) (= V R1)) (INV_MAIN_42 A B C D E F G H I J K))))
(assert (forall ((A Int) (B Int) (C Int) (D Int) (E Int) (F Int) (G Int) (H Int) (I Int) (J Int) (K Int) (L Int) (M Int) (N Int) (O Int) (P Int) (Q Int) (R Int) (S Int) (T Int) (U Int) (V Int))(=> (and (and (and (and (and (and (and (and (and (and (and (and (and (and (and (and (and (INV_MAIN_42 L M N O P Q R S T U V) (not (>= (- B C) 1))) (not (<= H (- 1)))) (not (= D A))) (not (= I G))) (= (+ E (- (* (- 4) B) A)) (- 4))) (= J G)) (= L A)) (= (- M B) (- 1))) (= N C)) (= O D)) (= (+ P (- (* (- 4) B) D)) (- 4))) (= Q F)) (= (- R G) (- 4))) (= (- S H) 1)) (= (- T I) (- 4))) (= U I)) (= V K)) (INV_MAIN_42 A B C D E F G H I J K))))
(assert (forall ((A Int) (B Int) (C Int) (D Int) (E Int) (F Int) (G Int) (H Int) (I Int) (J Int) (K Int) (L Int) (M Int) (N Int) (O Int) (P Int) (Q Int) (R Int) (S Int) (T Int) (U Int) (V Int) (W Int) (X Int) (Y Int) (Z Int) (A1 Int) (B1 Int) (C1 Int) (D1 Int) (E1 Int) (F1 Int) (G1 Int))(=> (and (and (and (and (and (and (and (and (and (and (and (and (and (and (and (and (and (and (and (and (and (and (and (and (and (and (and (and (INV_MAIN_42 L M N O P Q R S T U V) (INV_MAIN_42 W X Y Z A1 B1 C1 D1 E1 F1 G1)) (not (and (= (+ E (- (* (- 4) B) A)) (- 4)) (not (= Q F))))) (not (and (= (+ E (- (* (- 4) B) D)) (- 4)) (not (= Q F))))) (not (>= (- B C) 1))) (not (<= H (- 1)))) (not (= I G))) (= J G)) (= W A)) (= (- X B) (- 1))) (= Y C)) (= Z D)) (= A1 E)) (= B1 F)) (= (- C1 G) (- 4))) (= (- D1 H) 1)) (= (- E1 I) (- 4))) (= F1 I)) (= G1 K)) (= L A)) (= (- M B) (- 1))) (= N C)) (= O D)) (= (+ P (- (* (- 4) B) D)) (- 4))) (= (- R G) (- 4))) (= (- S H) 1)) (= (- T I) (- 4))) (= U I)) (= V K)) (INV_MAIN_42 A B C D E F G H I J K))))
(assert (forall ((A Int) (B Int) (C Int) (D Int) (E Int) (F Int) (G Int) (H Int) (I Int) (J Int) (K Int) (L Int) (M Int) (N Int) (O Int) (P Int) (Q Int) (R Int) (S Int) (T Int) (U Int) (V Int) (W Int) (X Int) (Y Int) (Z Int) (A1 Int) (B1 Int) (C1 Int) (D1 Int) (E1 Int) (F1 Int) (G1 Int))(=> (and (and (and (and (and (and (and (and (and (and (and (and (and (and (and (and (and (and (and (and (and (and (and (and (and (and (INV_MAIN_42 L M N O P Q R S T U V) (INV_MAIN_42 W X Y Z A1 B1 C1 D1 E1 F1 G1)) (not (and (= (+ E (- (* (- 4) B) A)) (- 4)) (not (= Q F))))) (not (and (= (+ E (- (* (- 4) B) D)) (- 4)) (not (= Q F))))) (not (>= (- B C) 1))) (not (>= H 1))) (= W A)) (= (- X B) (- 1))) (= Y C)) (= Z D)) (= A1 E)) (= B1 F)) (= C1 G)) (= D1 H)) (= E1 I)) (= F1 J)) (= G1 K)) (= L A)) (= (- M B) (- 1))) (= N C)) (= O D)) (= (+ P (- (* (- 4) B) D)) (- 4))) (= R G)) (= S H)) (= T I)) (= U J)) (= V K)) (INV_MAIN_42 A B C D E F G H I J K))))
(assert (forall ((A Int) (B Int) (C Int) (D Int) (E Int) (F Int) (G Int) (H Int) (I Int) (J Int) (K Int) (L Int) (M Int) (N Int) (O Int) (P Int) (Q Int) (R Int) (S Int) (T Int) (U Int) (V Int))(=> (and (and (and (and (and (and (and (and (and (and (and (and (and (and (and (INV_MAIN_42 L M N O P Q R S T U V) (not (>= (- B C) 1))) (not (>= H 1))) (not (= D A))) (= (+ E (- (* (- 4) B) A)) (- 4))) (= L A)) (= (- M B) (- 1))) (= N C)) (= O D)) (= (+ P (- (* (- 4) B) D)) (- 4))) (= Q F)) (= R G)) (= S H)) (= T I)) (= U J)) (= V K)) (INV_MAIN_42 A B C D E F G H I J K))))
(assert (forall ((A Int) (B Int) (C Int) (D Int) (E Int) (F Int) (G Int) (H Int) (I Int) (J Int) (K Int) (L Int) (M Int) (N Int) (O Int) (P Int) (Q Int) (R Int) (S Int) (T Int) (U Int) (V Int) (W Int) (X Int) (Y Int) (Z Int) (A1 Int) (B1 Int) (C1 Int) (D1 Int) (E1 Int) (F1 Int) (G1 Int))(=> (and (and (and (and (and (and (and (and (and (and (and (and (and (and (and (and (and (and (and (and (and (and (and (and (and (and (INV_MAIN_42 L M N O P Q R S T U V) (INV_MAIN_42 W X Y Z A1 B1 C1 D1 E1 F1 G1)) (not (and (= J G) (not (= V K))))) (not (and (= J I) (not (= V K))))) (not (>= (- C B) 1))) (not (<= H (- 1)))) (= W A)) (= X B)) (= Y C)) (= Z D)) (= A1 E)) (= B1 F)) (= (- C1 G) (- 4))) (= (- D1 H) 1)) (= (- E1 I) (- 4))) (= F1 J)) (= G1 K)) (= L A)) (= M B)) (= N C)) (= O D)) (= P E)) (= Q F)) (= (- R G) (- 4))) (= (- S H) 1)) (= (- T I) (- 4))) (= U I)) (INV_MAIN_42 A B C D E F G H I J K))))
(assert (forall ((A Int) (B Int) (C Int) (D Int) (E Int) (F Int) (G Int) (H Int) (I Int) (J Int) (K Int) (L Int) (M Int) (N Int) (O Int) (P Int) (Q Int) (R Int) (S Int) (T Int) (U Int) (V Int))(=> (and (and (and (and (and (and (and (and (and (and (and (and (and (and (and (INV_MAIN_42 L M N O P Q R S T U V) (not (>= (- C B) 1))) (not (<= H (- 1)))) (not (= I G))) (= J G)) (= L A)) (= M B)) (= N C)) (= O D)) (= P E)) (= Q F)) (= (- R G) (- 4))) (= (- S H) 1)) (= (- T I) (- 4))) (= U I)) (= V K)) (INV_MAIN_42 A B C D E F G H I J K))))
(check-sat)
